1257
1   1   0    96   0 95 98 44 38 14 43 42 0
1   2   0    100  0 21 55 25 67 39 72 0
1   3   0    84   0 15 41 23 56 75 22 0
1   4   0    99   0 85 93 99 94 0
1   5   0    86   0 87 37 100 97 13 0
1   6   0    90   0 73 74 4 54 12 26 0
1   7   0    98   0 52 7 19 11 64 49 82 0
1   8   0    100  0 76 33 51 9 71 35 3 77 0
2   1   0    89   0 31 90 66 65 20 70 0
2   2   0    99   0 18 83 84 46 36 47 48 0
2   3   0    83   0 89 91 16 86 61 0
2   4   0    98   0 30 32 63 10 62 88 0
2   5   0    67   0 68 80 24 29 50 0
2   6   0    76   0 1 81 34 78 79 0
2   7   0    100  0 6 92 59 96 60 5 17 45 8 0
2   8   0    93   0 58 57 2 40 53 28 27 69 0